#B3LYP/6-31g

water

0 1
H      0.303242   -0.493962    0.000000
H     -0.303242   -0.908821    0.000000
O      0.000000    0.175348    0.000000








