#p NoSymmetry HF/6-31g scf=tight nofmm

water

0 1
H           0.3032      -0.4940       0.0000
H          -0.3032      -0.9088       0.0000
H           0.3032      -0.4940       3.0000
H          -0.3032      -0.9088       3.0000
H           0.3032      -0.4940       6.0000
H          -0.3032      -0.9088       6.0000
H           0.3032      -0.4940       9.0000
H          -0.3032      -0.9088       9.0000
H           0.3032      -0.4940       12.0000
H          -0.3032      -0.9088       12.0000
H           0.3032      -3.4940       0.0000
H          -0.3032      -3.9088       0.0000
H           0.3032      -3.4940       3.0000
H          -0.3032      -3.9088       3.0000
H           0.3032      -3.4940       6.0000
H          -0.3032      -3.9088       6.0000
H           0.3032      -3.4940       9.0000
H          -0.3032      -3.9088       9.0000
H           0.3032      -3.4940       12.0000
H          -0.3032      -3.9088       12.0000
H           0.3032      -6.4940       0.0000
H          -0.3032      -6.9088       0.0000
H           0.3032      -6.4940       3.0000
H          -0.3032      -6.9088       3.0000
H           0.3032      -6.4940       6.0000
H          -0.3032      -6.9088       6.0000
H           0.3032      -6.4940       9.0000
H          -0.3032      -6.9088       9.0000
H           0.3032      -6.4940       12.0000
H          -0.3032      -6.9088       12.0000
H           0.3032      -9.4940       0.0000
H          -0.3032      -9.9088       0.0000
H           0.3032      -9.4940       3.0000
H          -0.3032      -9.9088       3.0000
H           0.3032      -9.4940       6.0000
H          -0.3032      -9.9088       6.0000
H           0.3032      -9.4940       9.0000
H          -0.3032      -9.9088       9.0000
H           0.3032      -9.4940       12.0000
H          -0.3032      -9.9088       12.0000
H           0.3032      -12.4940       0.0000
H          -0.3032      -12.9088       0.0000
H           0.3032      -12.4940       3.0000
H          -0.3032      -12.9088       3.0000
H           0.3032      -12.4940       6.0000
H          -0.3032      -12.9088       6.0000
H           0.3032      -12.4940       9.0000
H          -0.3032      -12.9088       9.0000
H           0.3032      -12.4940       12.0000
H          -0.3032      -12.9088       12.0000
H           0.3032      -15.4940       0.0000
H          -0.3032      -15.9088       0.0000
H           0.3032      -15.4940       3.0000
H          -0.3032      -15.9088       3.0000
H           0.3032      -15.4940       6.0000
H          -0.3032      -15.9088       6.0000
H           0.3032      -15.4940       9.0000
H          -0.3032      -15.9088       9.0000
H           0.3032      -15.4940       12.0000
H          -0.3032      -15.9088       12.0000
H           0.3032      -18.4940       0.0000
H          -0.3032      -18.9088       0.0000
H           0.3032      -18.4940       3.0000
H          -0.3032      -18.9088       3.0000
H           0.3032      -18.4940       6.0000
H          -0.3032      -18.9088       6.0000
H           0.3032      -18.4940       9.0000
H          -0.3032      -18.9088       9.0000
H           0.3032      -18.4940       12.0000
H          -0.3032      -18.9088       12.0000
H           0.3032      -21.4940       0.0000
H          -0.3032      -21.9088       0.0000
H           0.3032      -21.4940       3.0000
H          -0.3032      -21.9088       3.0000
H           0.3032      -21.4940       6.0000
H          -0.3032      -21.9088       6.0000
H           0.3032      -21.4940       9.0000
H          -0.3032      -21.9088       9.0000
H           0.3032      -21.4940       12.0000
H          -0.3032      -21.9088       12.0000
H           0.3032      -24.4940       0.0000
H          -0.3032      -24.9088       0.0000
H           0.3032      -24.4940       3.0000
H          -0.3032      -24.9088       3.0000
H           0.3032      -24.4940       6.0000
H          -0.3032      -24.9088       6.0000
H           0.3032      -24.4940       9.0000
H          -0.3032      -24.9088       9.0000
H           0.3032      -24.4940       12.0000
H          -0.3032      -24.9088       12.0000
H           0.3032      -27.4940       0.0000
H          -0.3032      -27.9088       0.0000
H           0.3032      -27.4940       3.0000
H          -0.3032      -27.9088       3.0000
H           0.3032      -27.4940       6.0000
H          -0.3032      -27.9088       6.0000
H           0.3032      -27.4940       9.0000
H          -0.3032      -27.9088       9.0000
H           0.3032      -27.4940       12.0000
H          -0.3032      -27.9088       12.0000
H           0.3032      -30.4940       0.0000
H          -0.3032      -30.9088       0.0000
H           0.3032      -30.4940       3.0000
H          -0.3032      -30.9088       3.0000
H           0.3032      -30.4940       6.0000
H          -0.3032      -30.9088       6.0000
H           0.3032      -30.4940       9.0000
H          -0.3032      -30.9088       9.0000
H           0.3032      -30.4940       12.0000
H          -0.3032      -30.9088       12.0000
H           0.3032      -33.4940       0.0000
H          -0.3032      -33.9088       0.0000
H           0.3032      -33.4940       3.0000
H          -0.3032      -33.9088       3.0000
H           0.3032      -33.4940       6.0000
H          -0.3032      -33.9088       6.0000
H           0.3032      -33.4940       9.0000
H          -0.3032      -33.9088       9.0000
H           0.3032      -33.4940       12.0000
H          -0.3032      -33.9088       12.0000
H           0.3032      -36.4940       0.0000
H          -0.3032      -36.9088       0.0000
H           0.3032      -36.4940       3.0000
H          -0.3032      -36.9088       3.0000
H           0.3032      -36.4940       6.0000
H          -0.3032      -36.9088       6.0000
H           0.3032      -36.4940       9.0000
H          -0.3032      -36.9088       9.0000
H           0.3032      -36.4940       12.0000
H          -0.3032      -36.9088       12.0000
H           0.3032      -39.4940       0.0000
H          -0.3032      -39.9088       0.0000
H           0.3032      -39.4940       3.0000
H          -0.3032      -39.9088       3.0000
H           0.3032      -39.4940       6.0000
H          -0.3032      -39.9088       6.0000
H           0.3032      -39.4940       9.0000
H          -0.3032      -39.9088       9.0000
H           0.3032      -39.4940       12.0000
H          -0.3032      -39.9088       12.0000
H           0.3032      -42.4940       0.0000
H          -0.3032      -42.9088       0.0000
H           0.3032      -42.4940       3.0000
H          -0.3032      -42.9088       3.0000
H           0.3032      -42.4940       6.0000
H          -0.3032      -42.9088       6.0000
H           0.3032      -42.4940       9.0000
H          -0.3032      -42.9088       9.0000
H           0.3032      -42.4940       12.0000
H          -0.3032      -42.9088       12.0000


