 #HF/6-31g scf=direct nofmm

water

-1 2
H           0.3032      -0.4940       0.0000
H          -0.3032      -0.9088       0.0000


