 #HF/sto-3g scf=direct nofmm

 water

 0 1
 N                 -2.9213   -0.7619   -0.2298
 H                 -1.9217   -0.7916   -0.2298
 C                 -3.6082    0.5138   -0.2298
 H                 -4.2331    0.5906   -1.1197
 C                 -4.4948    0.6599    1.0022
 C                 -2.6177    1.6694   -0.2298
 H                 -3.8821    0.5943    1.9013
 H                 -4.9980    1.6265    0.9759
 H                 -5.2391   -0.1363    1.0114
 O                 -1.3808    1.4379   -0.2298
 N                 -3.1060    3.0559   -0.2298
 H                 -4.0887    3.2400   -0.2098
 C                 -2.1634    4.1560   -0.2588
 H                 -1.5173    4.1047    0.6174
 C                 -1.2931    4.1004   -1.5099
 C                 -2.8849    5.4961   -0.2534
 H                 -1.9252    4.1599   -2.3958
 H                 -0.5952    4.9377   -1.5052
 H                 -0.7358    3.1637   -1.5241
 O                 -4.1424    5.5336   -0.2263
 N                 -2.1127    6.7467   -0.2799
 H                 -1.1146    6.7170   -0.3333
 C                 -2.7979    8.0225   -0.2285
 H                 -3.4690    8.1097   -1.0829
 C                 -3.6177    8.1542    1.0505
 C                 -1.8081    9.1780   -0.2676
 H                 -2.9581    8.0781    1.9149
 H                 -4.1209    9.1210    1.0622
 H                 -4.3609    7.3578    1.0900
 O                 -0.5730    8.9465   -0.3360
 N                 -2.2948   10.5644   -0.2256
 H                 -3.2727   10.7482   -0.1262
 C                 -1.3575   11.6647   -0.3280
 H                 -0.6430   11.6117    0.4934
 C                 -0.5905   11.6118   -1.6450
 C                 -2.0762   13.0047   -0.2618
 H                 -1.2918   11.6730   -2.4772
 H                  0.1054   12.4492   -1.6947
 H                 -0.0362   10.6752   -1.7059
 O                 -3.3275   13.0419   -0.1336
 H                 -1.5175   13.9151   -0.3243
 C                 -3.6937   -2.0126   -0.2298
 C                 -2.9722   -3.3527   -0.2193
 O                 -4.9515   -1.9753   -0.2385
 N                 -3.9152   -4.4529   -0.2211
 H                 -2.3514   -3.4070    0.6749
 C                 -2.0664   -3.4039   -1.4451
 H                 -4.8981   -4.2689   -0.2285
 H                 -2.6730   -3.3413   -2.3486
 H                 -1.3691   -2.5666   -1.4175
 H                 -1.5089   -4.3406   -1.4466
 C                 -3.4269   -5.8394   -0.2120
 C                 -4.4173   -6.9950   -0.2207
 O                 -2.1901   -6.0708   -0.1969
 N                 -3.7304   -8.2708   -0.2095
 H                 -5.0317   -6.9204   -1.1180
 C                 -5.3183   -6.8459    1.0005
 H                 -2.7309   -8.3004   -0.1977
 H                 -4.7161   -6.9093    1.9068
 H                 -5.8211   -5.8794    0.9659
 H                 -6.0626   -7.6422    1.0030
 C                 -4.5028   -9.5215   -0.2155
 C                 -3.7815  -10.8615   -0.1894
 O                 -5.7604   -9.4843   -0.2422
 N                 -4.7244  -11.9617   -0.2002
 H                 -3.1735  -10.9122    0.7137
 C                 -2.8585  -10.9176   -1.4020
 H                 -5.7071  -11.7779   -0.2223
 H                 -3.4522  -10.8586   -2.3142
 H                 -2.1616  -10.0802   -1.3679
 H                 -2.3010  -11.8542   -1.3919
 C                 -4.2363  -13.3482   -0.1786
 C                 -5.2262  -14.5039   -0.2076
 O                 -3.0001  -13.5795   -0.1361
 N                 -4.5396  -15.7796   -0.1798
 H                 -5.8208  -14.4305   -1.1183
 C                 -6.1538  -14.3534    0.9933
 H                 -3.5406  -15.8091   -0.1460
 H                 -5.5717  -14.4156    1.9127
 H                 -6.6558  -13.3870    0.9465
 H                 -6.8979  -15.1498    0.9804
 C                 -5.3116  -17.0304   -0.2011
 C                 -4.5913  -18.3702   -0.1508
 O                 -6.5680  -16.9934   -0.2610
 N                 -5.5335  -19.4706   -0.1820
 H                 -4.0072  -18.4173    0.7682
 C                 -3.6366  -18.4310   -1.3385
 H                 -6.5153  -19.2869   -0.2307
 H                 -4.2061  -18.3757   -2.2662
 H                 -2.9409  -17.5934   -1.2893
 H                 -3.0796  -19.3675   -1.3100
 C                 -5.0462  -20.8569   -0.1422
 C                 -6.0347  -22.0129   -0.1981
 O                 -3.8118  -21.0879   -0.0618
 N                 -5.3491  -23.2884   -0.1462
 H                 -6.6014  -21.9419   -1.1264
 C                 -6.9981  -21.8594    0.9739
 H                 -4.3516  -23.3176   -0.0823
 H                 -6.4439  -21.9192    1.9106
 H                 -7.4986  -20.8932    0.9094
 H                 -7.7414  -22.6560    0.9407
 C                 -6.1199  -24.5394   -0.1877
 C                 -5.4016  -25.8789   -0.1082
 O                 -7.3737  -24.5028   -0.2888
 N                 -6.3424  -26.9795   -0.1657
 H                 -4.8479  -25.9221    0.8296
 C                 -4.4086  -25.9444   -1.2638
 H                 -7.3220  -26.7961   -0.2473
 H                 -4.9475  -25.8930   -2.2099
 H                 -3.7149  -25.1065   -1.1954
 H                 -3.8528  -26.8807   -1.2132
 C                 -5.8566  -28.3655   -0.1042
 C                 -6.8424  -29.5219   -0.1908
 O                 -4.6257  -28.5960    0.0200
 N                 -6.1589  -30.7971   -0.1107
 H                 -7.3764  -29.4542   -1.1386
 C                 -7.8463  -29.3647    0.9463
 H                 -5.1642  -30.8259   -0.0118
 H                 -7.3252  -29.4212    1.9020
 H                 -8.3442  -28.3989    0.8611
 H                 -8.5879  -30.1615    0.8897
 C                 -6.9277  -32.0484   -0.1748
 C                 -6.2128  -33.3874   -0.0633
 O                 -8.1770  -32.0124   -0.3220
 N                 -7.1508  -34.4884   -0.1504
 H                 -5.6938  -33.4264    0.8943
 C                 -5.1782  -33.4578   -1.1815
 H                 -8.1268  -34.3055   -0.2686
 H                 -5.6821  -33.4106   -2.1469
 H                 -4.4874  -32.6195   -1.0914
 H                 -4.6246  -34.3938   -1.1066
 C                 -6.6676  -35.8741   -0.0651
 C                 -7.6493  -37.0310   -0.1849
 O                 -5.4424  -36.1037    0.1068
 N                 -6.9692  -38.3057   -0.0739
 H                 -8.1467  -36.9670   -1.1526
 C                 -8.6958  -36.8697    0.9125
 H                 -5.9791  -38.3339    0.0629
 H                 -8.2115  -36.9225    1.8876
 H                 -9.1903  -35.9043    0.8047
 H                 -9.4346  -37.6669    0.8307
 C                 -7.7349  -39.5574   -0.1626
 C                 -7.0245  -40.8958   -0.0198
 O                 -8.9778  -39.5223   -0.3565
 N                 -7.9584  -41.9974   -0.1382
 H                 -6.5417  -40.9315    0.9567
 C                 -5.9487  -40.9698   -1.0982
 H                 -8.9293  -41.8152   -0.2935
 H                 -6.4160  -40.9260   -2.0819
 H                 -5.2619  -40.1310   -0.9851
 H                 -5.3982  -41.9054   -0.9993
 H                 -7.6320  -42.9397   -0.0647


