%chk=ala16.chk
%mem=6MW
%nproc=1
# hf/sto-3g geom=connectivity scf=direct nofmm

water

0 1
 N                 -2.92130000   -0.76190000   -0.22980000
 H                 -1.92170000   -0.79160000   -0.22980000
 C                 -3.60820000    0.51380000   -0.22980000
 H                 -4.23310000    0.59060000   -1.11970000
 C                 -4.49480000    0.65990000    1.00220000
 C                 -2.61770000    1.66940000   -0.22980000
 H                 -3.88210000    0.59430000    1.90130000
 H                 -4.99800000    1.62650000    0.97590000
 H                 -5.23910000   -0.13630000    1.01140000
 O                 -1.38080000    1.43790000   -0.22980000
 N                 -3.10600000    3.05590000   -0.22980000
 H                 -4.08870000    3.24000000   -0.20980000
 C                 -2.16340000    4.15600000   -0.25880000
 H                 -1.51730000    4.10470000    0.61740000
 C                 -1.29310000    4.10040000   -1.50990000
 C                 -2.88490000    5.49610000   -0.25340000
 H                 -1.92520000    4.15990000   -2.39580000
 H                 -0.59520000    4.93770000   -1.50520000
 H                 -0.73580000    3.16370000   -1.52410000
 O                 -4.14240000    5.53360000   -0.22630000
 N                 -2.11270000    6.74670000   -0.27990000
 H                 -1.11460000    6.71700000   -0.33330000
 C                 -2.79790000    8.02250000   -0.22850000
 H                 -3.46900000    8.10970000   -1.08290000
 C                 -3.61770000    8.15420000    1.05050000
 C                 -1.80810000    9.17800000   -0.26760000
 H                 -2.95810000    8.07810000    1.91490000
 H                 -4.12090000    9.12100000    1.06220000
 H                 -4.36090000    7.35780000    1.09000000
 O                 -0.57300000    8.94650000   -0.33600000
 N                 -2.29480000   10.56440000   -0.22560000
 H                 -3.27270000   10.74820000   -0.12620000
 C                 -1.35750000   11.66470000   -0.32800000
 H                 -0.64300000   11.61170000    0.49340000
 C                 -0.59050000   11.61180000   -1.64500000
 C                 -2.07620000   13.00470000   -0.26180000
 H                 -1.29180000   11.67300000   -2.47720000
 H                  0.10540000   12.44920000   -1.69470000
 H                 -0.03620000   10.67520000   -1.70590000
 O                 -3.32750000   13.04190000   -0.13360000
 H                 -1.51750000   13.91510000   -0.32430000
 C                 -3.69370000   -2.01260000   -0.22980000
 C                 -2.97220000   -3.35270000   -0.21930000
 O                 -4.95150000   -1.97530000   -0.23850000
 N                 -3.91520000   -4.45290000   -0.22110000
 H                 -2.35140000   -3.40700000    0.67490000
 C                 -2.06640000   -3.40390000   -1.44510000
 H                 -4.89810000   -4.26890000   -0.22850000
 H                 -2.67300000   -3.34130000   -2.34860000
 H                 -1.36910000   -2.56660000   -1.41750000
 H                 -1.50890000   -4.34060000   -1.44660000
 C                 -3.42690000   -5.83940000   -0.21200000
 C                 -4.41730000   -6.99500000   -0.22070000
 O                 -2.19010000   -6.07080000   -0.19690000
 N                 -3.73040000   -8.27080000   -0.20950000
 H                 -5.03170000   -6.92040000   -1.11800000
 C                 -5.31830000   -6.84590000    1.00050000
 H                 -2.73090000   -8.30040000   -0.19770000
 H                 -4.71610000   -6.90930000    1.90680000
 H                 -5.82110000   -5.87940000    0.96590000
 H                 -6.06260000   -7.64220000    1.00300000
 C                 -4.50280000   -9.52150000   -0.21550000
 C                 -3.78150000  -10.86150000   -0.18940000
 O                 -5.76040000   -9.48430000   -0.24220000
 N                 -4.72440000  -11.96170000   -0.20020000
 H                 -3.17350000  -10.91220000    0.71370000
 C                 -2.85850000  -10.91760000   -1.40200000
 H                 -5.70710000  -11.77790000   -0.22230000
 H                 -3.45220000  -10.85860000   -2.31420000
 H                 -2.16160000  -10.08020000   -1.36790000
 H                 -2.30100000  -11.85420000   -1.39190000
 C                 -4.23630000  -13.34820000   -0.17860000
 C                 -5.22620000  -14.50390000   -0.20760000
 O                 -3.00010000  -13.57950000   -0.13610000
 N                 -4.53960000  -15.77960000   -0.17980000
 H                 -5.82080000  -14.43050000   -1.11830000
 C                 -6.15380000  -14.35340000    0.99330000
 H                 -3.54060000  -15.80910000   -0.14600000
 H                 -5.57170000  -14.41560000    1.91270000
 H                 -6.65580000  -13.38700000    0.94650000
 H                 -6.89790000  -15.14980000    0.98040000
 C                 -5.31160000  -17.03040000   -0.20110000
 C                 -4.59130000  -18.37020000   -0.15080000
 O                 -6.56800000  -16.99340000   -0.26100000
 N                 -5.53350000  -19.47060000   -0.18200000
 H                 -4.00720000  -18.41730000    0.76820000
 C                 -3.63660000  -18.43100000   -1.33850000
 H                 -6.51530000  -19.28690000   -0.23070000
 H                 -4.20610000  -18.37570000   -2.26620000
 H                 -2.94090000  -17.59340000   -1.28930000
 H                 -3.07960000  -19.36750000   -1.31000000
 C                 -5.04620000  -20.85690000   -0.14220000
 C                 -6.03470000  -22.01290000   -0.19810000
 O                 -3.81180000  -21.08790000   -0.06180000
 N                 -5.34910000  -23.28840000   -0.14620000
 H                 -6.60140000  -21.94190000   -1.12640000
 C                 -6.99810000  -21.85940000    0.97390000
 H                 -4.35160000  -23.31760000   -0.08230000
 H                 -6.44390000  -21.91920000    1.91060000
 H                 -7.49860000  -20.89320000    0.90940000
 H                 -7.74140000  -22.65600000    0.94070000
 C                 -6.11990000  -24.53940000   -0.18770000
 C                 -5.40160000  -25.87890000   -0.10820000
 O                 -7.37370000  -24.50280000   -0.28880000
 N                 -6.34240000  -26.97950000   -0.16570000
 H                 -4.84790000  -25.92210000    0.82960000
 C                 -4.40860000  -25.94440000   -1.26380000
 H                 -7.32200000  -26.79610000   -0.24730000
 H                 -4.94750000  -25.89300000   -2.20990000
 H                 -3.71490000  -25.10650000   -1.19540000
 H                 -3.85280000  -26.88070000   -1.21320000
 C                 -5.85660000  -28.36550000   -0.10420000
 C                 -6.84240000  -29.52190000   -0.19080000
 O                 -4.62570000  -28.59600000    0.02000000
 N                 -6.15890000  -30.79710000   -0.11070000
 H                 -7.37640000  -29.45420000   -1.13860000
 C                 -7.84630000  -29.36470000    0.94630000
 H                 -5.16420000  -30.82590000   -0.01180000
 H                 -7.32520000  -29.42120000    1.90200000
 H                 -8.34420000  -28.39890000    0.86110000
 H                 -8.58790000  -30.16150000    0.88970000
 C                 -6.92770000  -32.04840000   -0.17480000
 C                 -6.21280000  -33.38740000   -0.06330000
 O                 -8.17700000  -32.01240000   -0.32200000
 N                 -7.15080000  -34.48840000   -0.15040000
 H                 -5.69380000  -33.42640000    0.89430000
 C                 -5.17820000  -33.45780000   -1.18150000
 H                 -8.12680000  -34.30550000   -0.26860000
 H                 -5.68210000  -33.41060000   -2.14690000
 H                 -4.48740000  -32.61950000   -1.09140000
 H                 -4.62460000  -34.39380000   -1.10660000
 C                 -6.66760000  -35.87410000   -0.06510000
 C                 -7.64930000  -37.03100000   -0.18490000
 O                 -5.44240000  -36.10370000    0.10680000
 N                 -6.96920000  -38.30570000   -0.07390000
 H                 -8.14670000  -36.96700000   -1.15260000
 C                 -8.69580000  -36.86970000    0.91250000
 H                 -5.97910000  -38.33390000    0.06290000
 H                 -8.21150000  -36.92250000    1.88760000
 H                 -9.19030000  -35.90430000    0.80470000
 H                 -9.43460000  -37.66690000    0.83070000
 C                 -7.73490000  -39.55740000   -0.16260000
 C                 -7.02450000  -40.89580000   -0.01980000
 O                 -8.97780000  -39.52230000   -0.35650000
 N                 -7.95840000  -41.99740000   -0.13820000
 H                 -6.54170000  -40.93150000    0.95670000
 C                 -5.94870000  -40.96980000   -1.09820000
 H                 -8.92930000  -41.81520000   -0.29350000
 H                 -6.41600000  -40.92600000   -2.08190000
 H                 -5.26190000  -40.13100000   -0.98510000
 H                 -5.39820000  -41.90540000   -0.99930000
 C                 -7.47856045  -43.38267208   -0.03014790
 C                 -8.45949991  -44.53971299   -0.15464504
 O                 -6.25674402  -43.61189152    0.16528572
 N                 -7.78312716  -45.81393801   -0.01873128
 H                 -8.94016038  -44.48528465   -1.13142702
 C                 -9.52450364  -44.36579579    0.92291855
 H                 -6.79547691  -45.84181855    0.13544286
 H                 -9.05715628  -44.40887339    1.90670261
 H                -10.01580154  -43.40103556    0.79656636
 H                -10.26285073  -45.16299246    0.83677481
 C                 -8.54879794  -47.06564535   -0.10748377
 C                 -7.83835004  -48.40406550    0.03527725
 O                 -9.79165727  -47.03056044   -0.30149655
 N                 -8.77224067  -49.50561077   -0.08324865
 H                 -7.35565909  -48.43976131    1.01192212
 C                 -6.76250673  -48.47798042   -1.04301825
 H                 -9.74316904  -49.32345902   -0.23855190
 H                 -7.22977275  -48.43415242   -2.02680780
 H                 -6.07571305  -47.63916467   -0.92986613
 H                 -6.21197782  -49.41352901   -0.94419283
 C                 -8.29240076  -50.89088272    0.02480351
 C                 -9.27333993  -52.04792389   -0.09969359
 O                 -7.07058427  -51.12010184    0.22023713
 N                 -8.59696685  -53.32214873    0.03622022
 H                 -9.75400042  -51.99349571   -1.07647556
 C                -10.33834369  -51.87400692    0.97787001
 H                 -7.60931646  -53.35002877    0.19039437
 H                 -9.87099631  -51.91708436    1.96165406
 H                -10.82964184  -50.90924681    0.85151778
 H                -11.07669058  -52.67120377    0.89172630
 C                 -9.36263763  -54.57385606   -0.05253227
 C                 -8.65218973  -55.91227622    0.09022875
 O                -10.60549696  -54.53877115   -0.24654505
 N                 -9.58608036  -57.01382148   -0.02829715
 H                 -8.16949878  -55.94797203    1.06687362
 C                 -7.57634642  -55.98619114   -0.98806675
 H                -10.55700874  -56.83166974   -0.18360040
 H                 -8.04361244  -55.94236313   -1.97185630
 H                 -6.88955274  -55.14737539   -0.87491463
 H                 -7.02581752  -56.92173972   -0.88924133
 C                 -9.10624046  -58.39909344    0.07975500
 C                -10.08717962  -59.55613460   -0.04474209
 O                 -7.88442397  -58.62831256    0.27518863
 N                 -9.41080654  -60.83035944    0.09117172
 H                -10.56784011  -59.50170642   -1.02152406
 C                -11.15218338  -59.38221763    1.03282150
 H                 -8.42315615  -60.85823949    0.24534587
 H                -10.68483601  -59.42529507    2.01660556
 H                -11.64348153  -58.41745753    0.90646928
 H                -11.89053027  -60.17941449    0.94667780
 C                -10.17647732  -62.08206678    0.00241923
 C                 -9.46602942  -63.42048694    0.14518025
 O                -11.41933665  -62.04698187   -0.19159355
 N                -10.39992005  -64.52203220    0.02665435
 H                 -8.98333847  -63.45618275    1.12182512
 C                 -8.39018611  -63.49440185   -0.93311525
 H                -11.37084843  -64.33988046   -0.12864890
 H                 -8.85745213  -63.45057385   -1.91690480
 H                 -7.70339244  -62.65558610   -0.81996313
 H                 -7.83965721  -64.42995044   -0.83428983
 C                 -9.92008015  -65.90730416    0.13470650
 C                -10.90101932  -67.06434532    0.01020941
 O                 -8.69826366  -66.13652327    0.33014012
 N                -10.22464623  -68.33857016    0.14612322
 H                -11.38167980  -67.00991714   -0.96657257
 C                -11.96602308  -66.89042835    1.08777300
 H                 -9.23699584  -68.36645020    0.30029737
 H                -11.49867570  -66.93350579    2.07155706
 H                -12.45732122  -65.92566824    0.96142078
 H                -12.70436997  -67.68762520    1.00162929
 C                -10.99031701  -69.59027750    0.05737073
 C                -10.27986912  -70.92869765    0.20013174
 O                -12.23317635  -69.55519258   -0.13664205
 N                -11.21375974  -72.03024291    0.08160585
 H                 -9.79717817  -70.96439346    1.17677662
 C                 -9.20402580  -71.00261257   -0.87816375
 H                -12.18468812  -71.84809117   -0.07369740
 H                 -9.67129182  -70.95878457   -1.86195330
 H                 -8.51723213  -70.16379682   -0.76501163
 H                 -8.65349690  -71.93816115   -0.77933833
 C                -10.73391984  -73.41551487    0.18965800
 C                -11.71485901  -74.57255603    0.06516090
 O                 -9.51210335  -73.64473399    0.38509162
 N                -11.03848593  -75.84678088    0.20107472
 H                -12.19551950  -74.51812785   -0.91162107
 C                -12.77986277  -74.39863907    1.14272450
 H                -10.05083553  -75.87466092    0.35524887
 H                -12.31251539  -74.44171650    2.12650856
 H                -13.27116092  -73.43387896    1.01637228
 H                -13.51820966  -75.19583592    1.05658079
 C                -11.80415670  -77.09848821    0.11232223
 C                -11.09370881  -78.43690837    0.25508324
 O                -13.04701604  -77.06340330   -0.08169055
 N                -12.02759944  -79.53845363    0.13655734
 H                -10.61101786  -78.47260418    1.23172812
 C                -10.01786550  -78.51082329   -0.82321225
 H                -12.99852781  -79.35630189   -0.01874590
 H                -10.48513152  -78.46699528   -1.80700180
 H                 -9.33107182  -77.67200754   -0.71006014
 H                 -9.46733659  -79.44637187   -0.72438683
 C                -11.54775953  -80.92372559    0.24460950
 C                -12.52869870  -82.08076675    0.12011240
 O                -10.32594304  -81.15294470    0.44004312
 N                -11.85232562  -83.35499159    0.25602622
 H                -13.00935919  -82.02633857   -0.85666957
 C                -13.59370246  -81.90684978    1.19767600
 H                -10.86467523  -83.38287163    0.41020037
 H                -13.12635508  -81.94992722    2.18146006
 H                -14.08500061  -80.94208968    1.07132377
 H                -14.33204935  -82.70404664    1.11153229
 C                -12.61799640  -84.60669893    0.16727373
 C                -11.90754850  -85.94511908    0.31003474
 O                -13.86085573  -84.57161402   -0.02673905
 N                -12.84143913  -87.04666435    0.19150884
 H                -11.42485755  -85.98081489    1.28667961
 C                -10.83170519  -86.01903400   -0.76826076
 H                -13.81236750  -86.86451260    0.03620560
 H                -11.29897121  -85.97520600   -1.75205030
 H                -10.14491151  -85.18021825   -0.65510864
 H                -10.28117628  -86.95458259   -0.66943534
 C                -12.36159922  -88.43193630    0.29956100
 C                -13.34253839  -89.58897747    0.17506390
 O                -11.13978274  -88.66115542    0.49499462
 N                -12.66616531  -90.86320231    0.31097772
 H                -13.82319888  -89.53454929   -0.80171807
 C                -14.40754215  -89.41506050    1.25262750
 H                -11.67851492  -90.89108235    0.46515187
 H                -13.94019478  -89.45813794    2.23641156
 H                -14.89884030  -88.45030039    1.12627527
 H                -15.14588904  -90.21225735    1.16648379
 C                -13.43183609  -92.11490965    0.22222523
 C                -12.72138819  -93.45332980    0.36498624
 O                -14.67469542  -92.07982473    0.02821245
 N                -13.65527882  -94.55487506    0.24646034
 H                -12.23869724  -93.48902561    1.34163111
 C                -11.64554488  -93.52724472   -0.71330926
 H                -14.62620720  -94.37272332    0.09115710
 H                -12.11281090  -93.48341671   -1.69709880
 H                -10.95875120  -92.68842897   -0.60015714
 H                -11.09501598  -94.46279330   -0.61448384
 H                -13.32885712  -95.49723694    0.31996521

 1 2 1.0 3 1.0 42 1.0
 2
 3 4 1.0 5 1.0 6 1.0
 4
 5 7 1.0 8 1.0 9 1.0
 6 10 2.0 11 1.0
 7
 8
 9
 10
 11 12 1.0 13 1.0
 12
 13 14 1.0 15 1.0 16 1.0
 14
 15 17 1.0 18 1.0 19 1.0
 16 20 2.0 21 1.0
 17
 18
 19
 20
 21 22 1.0 23 1.0
 22
 23 24 1.0 25 1.0 26 1.0
 24
 25 27 1.0 28 1.0 29 1.0
 26 30 2.0 31 1.0
 27
 28
 29
 30
 31 32 1.0 33 1.0
 32
 33 34 1.0 35 1.0 36 1.0
 34
 35 37 1.0 38 1.0 39 1.0
 36 40 2.0 41 1.0
 37
 38
 39
 40
 41
 42 43 1.0 44 2.0
 43 45 1.0 46 1.0 47 1.0
 44
 45 48 1.0 52 1.0
 46
 47 49 1.0 50 1.0 51 1.0
 48
 49
 50
 51
 52 53 1.0 54 2.0
 53 55 1.0 56 1.0 57 1.0
 54
 55 58 1.0 62 1.0
 56
 57 59 1.0 60 1.0 61 1.0
 58
 59
 60
 61
 62 63 1.0 64 2.0
 63 65 1.0 66 1.0 67 1.0
 64
 65 68 1.0 72 1.0
 66
 67 69 1.0 70 1.0 71 1.0
 68
 69
 70
 71
 72 73 1.0 74 2.0
 73 75 1.0 76 1.0 77 1.0
 74
 75 78 1.0 82 1.0
 76
 77 79 1.0 80 1.0 81 1.0
 78
 79
 80
 81
 82 83 1.0 84 2.0
 83 85 1.0 86 1.0 87 1.0
 84
 85 88 1.0 92 1.0
 86
 87 89 1.0 90 1.0 91 1.0
 88
 89
 90
 91
 92 93 1.0 94 2.0
 93 95 1.0 96 1.0 97 1.0
 94
 95 98 1.0 102 1.0
 96
 97 99 1.0 100 1.0 101 1.0
 98
 99
 100
 101
 102 103 1.0 104 2.0
 103 105 1.0 106 1.0 107 1.0
 104
 105 108 1.0 112 1.0
 106
 107 109 1.0 110 1.0 111 1.0
 108
 109
 110
 111
 112 113 1.0 114 2.0
 113 115 1.0 116 1.0 117 1.0
 114
 115 118 1.0 122 1.0
 116
 117 119 1.0 120 1.0 121 1.0
 118
 119
 120
 121
 122 123 1.0 124 2.0
 123 125 1.0 126 1.0 127 1.0
 124
 125 128 1.0 132 1.0
 126
 127 129 1.0 130 1.0 131 1.0
 128
 129
 130
 131
 132 133 1.0 134 2.0
 133 135 1.0 136 1.0 137 1.0
 134
 135 138 1.0 142 1.0
 136
 137 139 1.0 140 1.0 141 1.0
 138
 139
 140
 141
 142 143 1.0 144 2.0
 143 145 1.0 146 1.0 147 1.0
 144
 145 148 1.0 152 1.0
 146
 147 149 1.0 150 1.0 151 1.0
 148
 149
 150
 151
 152 153 1.0 154 2.0
 153 155 1.0 156 1.0 157 1.0
 154
 155 158 1.0 162 1.0
 156
 157 159 1.0 160 1.0 161 1.0
 158
 159
 160
 161
 162 163 1.0 164 2.0
 163 165 1.0 166 1.0 167 1.0
 164
 165 168 1.0 172 1.0
 166
 167 169 1.0 170 1.0 171 1.0
 168
 169
 170
 171
 172 173 1.0 174 2.0
 173 175 1.0 176 1.0 177 1.0
 174
 175 178 1.0 182 1.0
 176
 177 179 1.0 180 1.0 181 1.0
 178
 179
 180
 181
 182 183 1.0 184 2.0
 183 185 1.0 186 1.0 187 1.0
 184
 185 188 1.0 192 1.0
 186
 187 189 1.0 190 1.0 191 1.0
 188
 189
 190
 191
 192 193 1.0 194 2.0
 193 195 1.0 196 1.0 197 1.0
 194
 195 198 1.0 202 1.0
 196
 197 199 1.0 200 1.0 201 1.0
 198
 199
 200
 201
 202 203 1.0 204 2.0
 203 205 1.0 206 1.0 207 1.0
 204
 205 208 1.0 212 1.0
 206
 207 209 1.0 210 1.0 211 1.0
 208
 209
 210
 211
 212 213 1.0 214 2.0
 213 215 1.0 216 1.0 217 1.0
 214
 215 218 1.0 222 1.0
 216
 217 219 1.0 220 1.0 221 1.0
 218
 219
 220
 221
 222 223 1.0 224 2.0
 223 225 1.0 226 1.0 227 1.0
 224
 225 228 1.0 232 1.0
 226
 227 229 1.0 230 1.0 231 1.0
 228
 229
 230
 231
 232 233 1.0 234 2.0
 233 235 1.0 236 1.0 237 1.0
 234
 235 238 1.0 242 1.0
 236
 237 239 1.0 240 1.0 241 1.0
 238
 239
 240
 241
 242 243 1.0 244 2.0
 243 245 1.0 246 1.0 247 1.0
 244
 245 248 1.0 252 1.0
 246
 247 249 1.0 250 1.0 251 1.0
 248
 249
 250
 251
 252 253 1.0 254 2.0
 253 255 1.0 256 1.0 257 1.0
 254
 255 258 1.0 262 1.0
 256
 257 259 1.0 260 1.0 261 1.0
 258
 259
 260
 261
 262 263 1.0 264 2.0
 263 265 1.0 266 1.0 267 1.0
 264
 265 268 1.0 272 1.0
 266
 267 269 1.0 270 1.0 271 1.0
 268
 269
 270
 271
 272 273 1.0 274 2.0
 273 275 1.0 276 1.0 277 1.0
 274
 275 278 1.0 282 1.0
 276
 277 279 1.0 280 1.0 281 1.0
 278
 279
 280
 281
 282 283 1.0 284 2.0
 283 285 1.0 286 1.0 287 1.0
 284
 285 288 1.0 292 1.0
 286
 287 289 1.0 290 1.0 291 1.0
 288
 289
 290
 291
 292

