%chk=ala1.chk
%mem=6MW
%nproc=1
# hf/3-21g geom=connectivity

Title Card Required

0 1
 N                 -2.24620013    0.43481900    0.00000000
 H                 -1.24664027    0.40515276    0.00000000
 C                 -2.93315413    1.71063100    0.00000000
 H                 -3.55798713    1.78743400   -0.88982300
 C                 -3.81977713    1.85675300    1.23214100
 C                 -1.94267513    2.86624200    0.00000000
 H                 -3.20700413    1.79110500    2.13119600
 H                 -4.32293313    2.82331400    1.20578400
 H                 -4.56401213    1.06043100    1.24137300
 O                 -0.70574935    2.63475726    0.00000000
 H                 -2.29808724    3.87549034    0.00000000
 C                 -3.01864344   -0.81587334    0.00000000
 C                 -2.29708111   -2.15596037    0.00000000
 O                 -4.27648983   -0.77854120   -0.00000000
 N                 -3.24005363   -3.25614438    0.00000000
 H                 -1.67022944   -2.21402900    0.88982300
 C                 -1.39968162   -2.20207051   -1.23214100
 H                 -4.22298891   -3.07219263    0.00000000
 H                 -2.01237376   -2.13567209   -2.13119600
 H                 -0.70216808   -1.36488416   -1.20578400
 H                 -0.84217126   -3.13865829   -1.24137300
 C                 -2.75177734   -4.64268189    0.00000000
 C                 -3.74225634   -5.79829289   -0.00000000
 O                 -1.51485134   -4.87416689    0.00000000
 N                 -3.05530234   -7.07410489   -0.00000000
 H                 -4.36708934   -5.72148989   -0.88982300
 C                 -4.62887934   -5.65217089    1.23214100
 H                 -2.05574247   -7.10377112   -0.00000000
 H                 -4.01610634   -5.71781889    2.13119600
 H                 -5.13203534   -4.68560989    1.20578400
 H                 -5.37311434   -6.44849289    1.24137300
 C                 -3.82774565   -8.32479723    0.00000000
 C                 -3.10618343   -9.66488431    0.00000000
 O                 -5.08559205   -8.28746519    0.00000000
 N                 -4.04915605  -10.76506825    0.00000000
 H                 -2.47933177   -9.72295300    0.88982300
 C                 -2.20878395   -9.71099454   -1.23214100
 H                 -5.03209131  -10.58111642    0.00000000
 H                 -2.82147608   -9.64459606   -2.13119600
 H                 -1.51127034   -8.87380824   -1.20578400
 H                 -1.65127367  -10.64758236   -1.24137300
 H                 -3.71699539  -11.70829107    0.00000000

 1 2 1.0 3 1.0 12 1.0
 2
 3 4 1.0 5 1.0 6 1.0
 4
 5 7 1.0 8 1.0 9 1.0
 6 10 2.0 11 1.0
 7
 8
 9
 10
 11
 12 13 1.0 14 2.0
 13 15 1.0 16 1.0 17 1.0
 14
 15 18 1.0 22 1.0
 16
 17 19 1.0 20 1.0 21 1.0
 18
 19
 20
 21
 22 23 1.0 24 2.0
 23 25 1.0 26 1.0 27 1.0
 24
 25 28 1.0 32 1.0
 26
 27 29 1.0 30 1.0 31 1.0
 28
 29
 30
 31
 32 33 1.0 34 2.0
 33 35 1.0 36 1.0 37 1.0
 34
 35 38 1.0 42 1.0
 36
 37 39 1.0 40 1.0 41 1.0
 38
 39
 40
 41
 42

