%chk=benzene.chk
%nproc=1
# scf=tight blyp/3-21g opt geom=connectivity

Title Card Required

0 1
 C                 -3.57841358    1.32763054   -1.11329110
 C                 -2.18325358    1.32763054   -1.11329110
 C                 -1.48571558    2.53538154   -1.11329110
 C                 -2.18336958    3.74389054   -1.11449010
 C                 -3.57819458    3.74381254   -1.11496910
 C                 -4.27579558    2.53560654   -1.11397310
 H                 -4.12817258    0.37531354   -1.11284110
 H                 -1.63374558    0.37511754   -1.11197610
 H                 -0.38603558    2.53546154   -1.11265710
 H                 -1.63316958    4.69603354   -1.11454910
 H                 -4.12831658    4.69609354   -1.11592210
 H                 -5.37539958    2.53578954   -1.11415310

 1 2 1.5 6 1.5 7 1.0
 2 3 1.5 8 1.0
 3 4 1.5 9 1.0
 4 5 1.5 10 1.0
 5 6 1.5 11 1.0
 6 12 1.0
 7
 8
 9
 10
 11
 12

