# RHF/sto-3g opt

Dooh H2

0 1
H1
H2 H1 r1

r1 0.7348
