# b3lyp/3-21g

Dooh H2

0 1
H1
H2 H1 r1

r1 1.000

